(set-logic HORN)
(declare-datatypes ((Nat_1 0)) (((Z_1 ) (S_1 (unS_0 Nat_1)))))
(declare-fun diseqNat_0 (Nat_1 Nat_1) Bool)
(declare-fun unS_1 (Nat_1 Nat_1) Bool)
(declare-fun isZ_0 (Nat_1) Bool)
(declare-fun isS_0 (Nat_1) Bool)
(assert (forall ((x_26 Nat_1) (x_25 Nat_1))
	(=> (= x_26 (S_1 x_25))
	    (unS_1 x_25 x_26))))
(assert (isZ_0 Z_1))
(assert (forall ((x_27 Nat_1))
	(isS_0 (S_1 x_27))))
(assert (forall ((x_28 Nat_1))
	(diseqNat_0 Z_1 (S_1 x_28))))
(assert (forall ((x_29 Nat_1))
	(diseqNat_0 (S_1 x_29) Z_1)))
(assert (forall ((x_30 Nat_1) (x_31 Nat_1))
	(=> (diseqNat_0 x_30 x_31)
	    (diseqNat_0 (S_1 x_30) (S_1 x_31)))))
(declare-fun add_0 (Nat_1 Nat_1 Nat_1) Bool)
(declare-fun minus_0 (Nat_1 Nat_1 Nat_1) Bool)
(declare-fun le_0 (Nat_1 Nat_1) Bool)
(declare-fun ge_0 (Nat_1 Nat_1) Bool)
(declare-fun lt_0 (Nat_1 Nat_1) Bool)
(declare-fun gt_0 (Nat_1 Nat_1) Bool)
(declare-fun mult_0 (Nat_1 Nat_1 Nat_1) Bool)
(declare-fun div_0 (Nat_1 Nat_1 Nat_1) Bool)
(declare-fun mod_0 (Nat_1 Nat_1 Nat_1) Bool)
(assert (forall ((y_5 Nat_1))
	(add_0 y_5 Z_1 y_5)))
(assert (forall ((x_23 Nat_1) (y_5 Nat_1) (r_0 Nat_1))
	(=> (add_0 r_0 x_23 y_5)
	    (add_0 (S_1 r_0) (S_1 x_23) y_5))))
(assert (forall ((y_5 Nat_1))
	(minus_0 Z_1 Z_1 y_5)))
(assert (forall ((x_23 Nat_1) (y_5 Nat_1) (r_0 Nat_1))
	(=> (minus_0 r_0 x_23 y_5)
	    (minus_0 (S_1 r_0) (S_1 x_23) y_5))))
(assert (forall ((y_5 Nat_1))
	(le_0 Z_1 y_5)))
(assert (forall ((x_23 Nat_1) (y_5 Nat_1))
	(=> (le_0 x_23 y_5)
	    (le_0 (S_1 x_23) (S_1 y_5)))))
(assert (forall ((y_5 Nat_1))
	(ge_0 y_5 Z_1)))
(assert (forall ((x_23 Nat_1) (y_5 Nat_1))
	(=> (ge_0 x_23 y_5)
	    (ge_0 (S_1 x_23) (S_1 y_5)))))
(assert (forall ((y_5 Nat_1))
	(lt_0 Z_1 (S_1 y_5))))
(assert (forall ((x_23 Nat_1) (y_5 Nat_1))
	(=> (lt_0 x_23 y_5)
	    (lt_0 (S_1 x_23) (S_1 y_5)))))
(assert (forall ((y_5 Nat_1))
	(gt_0 (S_1 y_5) Z_1)))
(assert (forall ((x_23 Nat_1) (y_5 Nat_1))
	(=> (gt_0 x_23 y_5)
	    (gt_0 (S_1 x_23) (S_1 y_5)))))
(assert (forall ((y_5 Nat_1))
	(mult_0 Z_1 Z_1 y_5)))
(assert (forall ((x_23 Nat_1) (y_5 Nat_1) (r_0 Nat_1) (z_3 Nat_1))
	(=>	(and (mult_0 r_0 x_23 y_5)
			(add_0 z_3 r_0 y_5))
		(mult_0 z_3 (S_1 x_23) y_5))))
(assert (forall ((x_23 Nat_1) (y_5 Nat_1))
	(=> (lt_0 x_23 y_5)
	    (div_0 Z_1 x_23 y_5))))
(assert (forall ((x_23 Nat_1) (y_5 Nat_1) (r_0 Nat_1) (z_3 Nat_1))
	(=>	(and (ge_0 x_23 y_5)
			(minus_0 z_3 x_23 y_5)
			(div_0 r_0 z_3 y_5))
		(div_0 (S_1 r_0) x_23 y_5))))
(assert (forall ((x_23 Nat_1) (y_5 Nat_1))
	(=> (lt_0 x_23 y_5)
	    (mod_0 x_23 x_23 y_5))))
(assert (forall ((x_23 Nat_1) (y_5 Nat_1) (r_0 Nat_1) (z_3 Nat_1))
	(=>	(and (ge_0 x_23 y_5)
			(minus_0 z_3 x_23 y_5)
			(mod_0 r_0 z_3 y_5))
		(mod_0 r_0 x_23 y_5))))
(declare-datatypes ((Nat_0 0)) (((Z_0 ) (S_0 (projS_0 Nat_0)))))
(declare-fun diseqNat_1 (Nat_0 Nat_0) Bool)
(declare-fun projS_1 (Nat_0 Nat_0) Bool)
(declare-fun isZ_1 (Nat_0) Bool)
(declare-fun isS_1 (Nat_0) Bool)
(assert (forall ((x_34 Nat_0) (x_33 Nat_0))
	(=> (= x_34 (S_0 x_33))
	    (projS_1 x_33 x_34))))
(assert (isZ_1 Z_0))
(assert (forall ((x_35 Nat_0))
	(isS_1 (S_0 x_35))))
(assert (forall ((x_36 Nat_0))
	(diseqNat_1 Z_0 (S_0 x_36))))
(assert (forall ((x_37 Nat_0))
	(diseqNat_1 (S_0 x_37) Z_0)))
(assert (forall ((x_38 Nat_0) (x_39 Nat_0))
	(=> (diseqNat_1 x_38 x_39)
	    (diseqNat_1 (S_0 x_38) (S_0 x_39)))))
(declare-fun min_0 (Nat_0 Nat_0 Nat_0) Bool)
(assert (forall ((x_0 Nat_0) (y_0 Nat_0) (z_0 Nat_0) (y_1 Nat_0) (x_7 Nat_0) (x_8 Nat_0))
	(=>	(and (= x_7 (S_0 x_8))
			(min_0 x_8 z_0 y_1)
			(= x_0 (S_0 z_0))
			(= y_0 (S_0 y_1)))
		(min_0 x_7 x_0 y_0))))
(assert (forall ((x_0 Nat_0) (y_0 Nat_0) (z_0 Nat_0) (x_9 Nat_0))
	(=>	(and (= x_9 Z_0)
			(= x_0 (S_0 z_0))
			(= y_0 Z_0))
		(min_0 x_9 x_0 y_0))))
(assert (forall ((x_0 Nat_0) (y_0 Nat_0) (x_10 Nat_0))
	(=>	(and (= x_10 Z_0)
			(= x_0 Z_0))
		(min_0 x_10 x_0 y_0))))
(declare-fun x_1 (Bool Nat_0 Nat_0) Bool)
(assert (forall ((x_2 Nat_0) (y_2 Nat_0) (x_3 Nat_0) (y_3 Nat_0) (x_11 Bool) (x_12 Bool))
	(=>	(and (= x_11 x_12)
			(x_1 x_12 x_3 y_3)
			(= x_2 (S_0 x_3))
			(= y_2 (S_0 y_3)))
		(x_1 x_11 x_2 y_2))))
(assert (forall ((x_2 Nat_0) (y_2 Nat_0) (x_3 Nat_0) (x_13 Bool))
	(=>	(and (= x_13 false)
			(= x_2 (S_0 x_3))
			(= y_2 Z_0))
		(x_1 x_13 x_2 y_2))))
(assert (forall ((x_2 Nat_0) (y_2 Nat_0) (z_1 Nat_0) (x_14 Bool))
	(=>	(and (= x_14 false)
			(= x_2 Z_0)
			(= y_2 (S_0 z_1)))
		(x_1 x_14 x_2 y_2))))
(assert (forall ((x_2 Nat_0) (y_2 Nat_0) (x_15 Bool))
	(=>	(and (= x_15 true)
			(= x_2 Z_0)
			(= y_2 Z_0))
		(x_1 x_15 x_2 y_2))))
(declare-fun x_4 (Bool Nat_0 Nat_0) Bool)
(assert (forall ((x_5 Nat_0) (y_4 Nat_0) (z_2 Nat_0) (x_6 Nat_0) (x_16 Bool) (x_17 Bool))
	(=>	(and (= x_16 x_17)
			(x_4 x_17 z_2 x_6)
			(= x_5 (S_0 z_2))
			(= y_4 (S_0 x_6)))
		(x_4 x_16 x_5 y_4))))
(assert (forall ((x_5 Nat_0) (y_4 Nat_0) (z_2 Nat_0) (x_18 Bool))
	(=>	(and (= x_18 false)
			(= x_5 (S_0 z_2))
			(= y_4 Z_0))
		(x_4 x_18 x_5 y_4))))
(assert (forall ((x_5 Nat_0) (y_4 Nat_0) (x_19 Bool))
	(=>	(and (= x_19 true)
			(= x_5 Z_0))
		(x_4 x_19 x_5 y_4))))
(assert (forall ((a_0 Nat_0) (b_0 Nat_0) (x_20 Nat_0) (x_21 Bool) (x_22 Bool))
	(=>	(and (not (= x_21 x_22))
			(min_0 x_20 a_0 b_0)
			(x_1 x_21 x_20 b_0)
			(x_4 x_22 b_0 a_0))
		false)))
(check-sat)
